19:17:13 | INFO    | Run started | run_id: SR_SV_RD_case1_P5_eps90 | log file: C:\Users\Asus\Documents\GitHub\logistics-model2\internal-logistics-model2\results\SR_SV_RD\case1\SR_SV_RD_case1_P5_eps90_2026_05_06_19_17.log
19:17:13 | INFO    | Products loaded | sheet=case1 | rows=15
19:17:13 | INFO    | Data loaded | |N|=31 |Nw|=30 |K|=1 |R|=1 |P|=5 | U=30
19:17:13 | INFO    | Big-M | time=491.0 precedence=480.0 wait=465.0 load_lb=20 load_ub=20
19:17:13 | INFO    | Set parameter Username
19:17:13 | INFO    | Set parameter LicenseID to value 2811848
19:17:13 | INFO    | Academic license - for non-commercial use only - expires 2027-04-22
19:17:13 | INFO    | Objective set | primary: min route_duration | tie-break weight on wait: 0.001
19:17:13 | INFO    | Constraint (3) added | total_wait <= 90
19:17:13 | INFO    | Constraints (4)-(9) added | route structure
19:17:13 | INFO    | Constraints (10)-(12) added | product assignment
19:17:13 | INFO    | Constraints (13)-(15) added | route timing
19:17:13 | INFO    | Constraints (16) added | time consistency
19:17:13 | INFO    | Constraints (17)-(19) added | service times
19:17:13 | INFO    | Constraints (20)-(22) added | precedence, route closure, waiting
19:17:13 | INFO    | Constraints (23)-(27) added | load propagation
19:17:13 | INFO    | Constraints (28)-(32) added | MTZ and route ordering
19:17:13 | INFO    | Set parameter TimeLimit to value 600
19:17:13 | INFO    | Set parameter MIPGap to value 0.01
19:17:13 | INFO    | Set parameter Presolve to value 2
19:17:13 | INFO    | Set parameter LogFile to value "C:\Users\Asus\Documents\GitHub\logistics-model2\internal-logistics-model2\results\SR_SV_RD\case1\result_SR_SV_RD_case1_P5_eps90_2026_05_06_19_17.log"
19:17:13 | INFO    | Solver configured | TimeLimit=600s | MIPGap=0.01 | gurobi_log=C:\Users\Asus\Documents\GitHub\logistics-model2\internal-logistics-model2\results\SR_SV_RD\case1\result_SR_SV_RD_case1_P5_eps90_2026_05_06_19_17.log
19:17:13 | INFO    | Optimization starting...
19:17:13 | INFO    | Gurobi Optimizer version 12.0.0 build v12.0.0rc1 (win64 - Windows 10.0 (19045.2))
19:17:13 | INFO    | 
19:17:13 | INFO    | CPU model: 12th Gen Intel(R) Core(TM) i7-12650H, instruction set [SSE2|AVX|AVX2]
19:17:13 | INFO    | Thread count: 10 physical cores, 16 logical processors, using up to 16 threads
19:17:13 | INFO    | 
19:17:13 | INFO    | Non-default parameters:
19:17:13 | INFO    | TimeLimit  600
19:17:13 | INFO    | MIPGap  0.01
19:17:13 | INFO    | Presolve  2
19:17:13 | INFO    | 
19:17:13 | INFO    | Optimize a model with 3852 rows, 1123 columns and 19434 nonzeros
19:17:13 | INFO    | Model fingerprint: 0x563dfb75
19:17:13 | INFO    | Variable types: 158 continuous, 965 integer (935 binary)
19:17:13 | INFO    | Coefficient statistics:
19:17:13 | INFO    |   Matrix range     [1e+00, 5e+02]
19:17:13 | INFO    |   Objective range  [1e-03, 1e+00]
19:17:13 | INFO    |   Bounds range     [1e+00, 3e+01]
19:17:13 | INFO    |   RHS range        [1e+00, 5e+02]
19:17:13 | INFO    | Presolve removed 3459 rows and 976 columns
19:17:13 | INFO    | Presolve time: 0.01s
19:17:13 | INFO    | Presolved: 393 rows, 147 columns, 2546 nonzeros
19:17:13 | INFO    | Variable types: 32 continuous, 115 integer (105 binary)
19:17:13 | INFO    | Root relaxation presolve removed 2 rows and 0 columns
19:17:13 | INFO    | Root relaxation presolved: 391 rows, 148 columns, 2534 nonzeros
19:17:13 | INFO    | 
19:17:13 | INFO    | 
19:17:13 | INFO    | Root relaxation: objective 1.500000e-02, 74 iterations, 0.00 seconds (0.00 work units)
19:17:13 | INFO    | 
19:17:13 | INFO    |     Nodes    |    Current Node    |     Objective Bounds      |     Work
19:17:13 | INFO    |  Expl Unexpl |  Obj  Depth IntInf | Incumbent    BestBd   Gap | It/Node Time
19:17:13 | INFO    | 
19:17:13 | INFO    |      0     0    0.01500    0   12          -    0.01500      -     -    0s
19:17:13 | INFO    |      0     0    0.01500    0   20          -    0.01500      -     -    0s
19:17:13 | INFO    |      0     0    0.02004    0   28          -    0.02004      -     -    0s
19:17:13 | INFO    |      0     0    0.03664    0   37          -    0.03664      -     -    0s
19:17:13 | INFO    |      0     0    0.04643    0   37          -    0.04643      -     -    0s
19:17:13 | INFO    |      0     0    0.05230    0   34          -    0.05230      -     -    0s
19:17:13 | INFO    |      0     0    0.05267    0   38          -    0.05267      -     -    0s
19:17:13 | INFO    |      0     0    0.05589    0   42          -    0.05589      -     -    0s
19:17:13 | INFO    |      0     0    0.05634    0   45          -    0.05634      -     -    0s
19:17:13 | INFO    |      0     0    0.05687    0   40          -    0.05687      -     -    0s
19:17:13 | INFO    |      0     0    0.05728    0   43          -    0.05728      -     -    0s
19:17:13 | INFO    |      0     0    0.05800    0   44          -    0.05800      -     -    0s
19:17:13 | INFO    |      0     0    0.05820    0   45          -    0.05820      -     -    0s
19:17:13 | INFO    |      0     0    0.05911    0   44          -    0.05911      -     -    0s
19:17:13 | INFO    |      0     0    0.05997    0   41          -    0.05997      -     -    0s
19:17:13 | INFO    |      0     0    0.06084    0   40          -    0.06084      -     -    0s
19:17:13 | INFO    |      0     0    0.06132    0   43          -    0.06132      -     -    0s
19:17:13 | INFO    |      0     0    0.06209    0   46          -    0.06209      -     -    0s
19:17:13 | INFO    |      0     0    0.06214    0   46          -    0.06214      -     -    0s
19:17:13 | INFO    |      0     0    0.06232    0   44          -    0.06232      -     -    0s
19:17:13 | INFO    |      0     0    0.06241    0   44          -    0.06241      -     -    0s
19:17:13 | INFO    |      0     0    0.06256    0   49          -    0.06256      -     -    0s
19:17:13 | INFO    |      0     0    0.06261    0   48          -    0.06261      -     -    0s
19:17:13 | INFO    |      0     0    0.06261    0   47          -    0.06261      -     -    0s
19:17:13 | INFO    |      0     0    0.06263    0   47          -    0.06263      -     -    0s
19:17:13 | INFO    |      0     0    0.06270    0   46          -    0.06270      -     -    0s
19:17:13 | INFO    |      0     0    0.06270    0   46          -    0.06270      -     -    0s
19:17:13 | INFO    |      0     2    0.06270    0   46          -    0.06270      -     -    0s
19:17:13 | INFO    | * 1109   743              24      79.0900000    0.06852   100%  12.5    0s
19:17:15 | INFO    | 
19:17:15 | INFO    | Cutting planes:
19:17:15 | INFO    |   Learned: 10
19:17:15 | INFO    |   Gomory: 5
19:17:15 | INFO    |   Cover: 3
19:17:15 | INFO    |   Implied bound: 66
19:17:15 | INFO    |   Clique: 1
19:17:15 | INFO    |   MIR: 156
19:17:15 | INFO    |   StrongCG: 5
19:17:15 | INFO    |   Flow cover: 240
19:17:15 | INFO    |   Inf proof: 10
19:17:15 | INFO    |   Zero half: 3
19:17:15 | INFO    |   RLT: 44
19:17:15 | INFO    |   Relax-and-lift: 31
19:17:15 | INFO    |   BQP: 1
19:17:15 | INFO    |   PSD: 2
19:17:15 | INFO    | 
19:17:15 | INFO    | Explored 5475 nodes (150024 simplex iterations) in 1.71 seconds (1.70 work units)
19:17:15 | INFO    | Thread count was 16 (of 16 available processors)
19:17:15 | INFO    | 
19:17:15 | INFO    | Solution count 1: 79.09 
19:17:15 | INFO    | 
19:17:15 | INFO    | Optimal solution found (tolerance 1.00e-02)
19:17:15 | INFO    | Best objective 7.909000000000e+01, best bound 7.909000000000e+01, gap 0.0000%
19:17:15 | INFO    | Solution found | route_duration=79.00 | total_wait=90.00
19:17:15 | INFO    | Objective=79.09 | runtime=1.71s | MIP Gap=0.00%
19:17:15 | INFO    | Generating Excel output | C:\Users\Asus\Documents\GitHub\logistics-model2\internal-logistics-model2\results\SR_SV_RD\case1\result_SR_SV_RD_case1_P5_eps90_2026_05_06_19_17.xlsx
19:17:15 | INFO    | Excel output written | 12 sheets | C:\Users\Asus\Documents\GitHub\logistics-model2\internal-logistics-model2\results\SR_SV_RD\case1\result_SR_SV_RD_case1_P5_eps90_2026_05_06_19_17.xlsx
19:17:25 | INFO    | Run started | run_id: SR_SV_RD_case1_P5_eps90 | log file: C:\Users\Asus\Documents\GitHub\logistics-model2\internal-logistics-model2\results\SR_SV_RD\case1\SR_SV_RD_case1_P5_eps90_2026_05_06_19_17.log
19:17:25 | INFO    | Products loaded | sheet=case1 | rows=15
19:17:25 | INFO    | Data loaded | |N|=31 |Nw|=30 |K|=1 |R|=1 |P|=5 | U=30
19:17:25 | INFO    | Big-M | time=491.0 precedence=480.0 wait=465.0 load_lb=20 load_ub=20
19:17:25 | INFO    | Set parameter Username
19:17:25 | INFO    | Set parameter LicenseID to value 2811848
19:17:25 | INFO    | Academic license - for non-commercial use only - expires 2027-04-22
19:17:25 | INFO    | Objective set | primary: min route_duration | tie-break weight on wait: 0.001
19:17:25 | INFO    | Constraint (3) added | total_wait <= 90
19:17:25 | INFO    | Constraints (4)-(9) added | route structure
19:17:25 | INFO    | Constraints (10)-(12) added | product assignment
19:17:25 | INFO    | Constraints (13)-(15) added | route timing
19:17:25 | INFO    | Constraints (16) added | time consistency
19:17:25 | INFO    | Constraints (17)-(19) added | service times
19:17:25 | INFO    | Constraints (20)-(22) added | precedence, route closure, waiting
19:17:25 | INFO    | Constraints (23)-(27) added | load propagation
19:17:26 | INFO    | Constraints (28)-(32) added | MTZ and route ordering
19:17:26 | INFO    | Set parameter TimeLimit to value 600
19:17:26 | INFO    | Set parameter MIPGap to value 0.01
19:17:26 | INFO    | Set parameter Presolve to value 2
19:17:26 | INFO    | Set parameter LogFile to value "C:\Users\Asus\Documents\GitHub\logistics-model2\internal-logistics-model2\results\SR_SV_RD\case1\result_SR_SV_RD_case1_P5_eps90_2026_05_06_19_17.log"
19:17:26 | INFO    | Solver configured | TimeLimit=600s | MIPGap=0.01 | gurobi_log=C:\Users\Asus\Documents\GitHub\logistics-model2\internal-logistics-model2\results\SR_SV_RD\case1\result_SR_SV_RD_case1_P5_eps90_2026_05_06_19_17.log
19:17:26 | INFO    | Optimization starting...
19:17:26 | INFO    | Gurobi Optimizer version 12.0.0 build v12.0.0rc1 (win64 - Windows 10.0 (19045.2))
19:17:26 | INFO    | 
19:17:26 | INFO    | CPU model: 12th Gen Intel(R) Core(TM) i7-12650H, instruction set [SSE2|AVX|AVX2]
19:17:26 | INFO    | Thread count: 10 physical cores, 16 logical processors, using up to 16 threads
19:17:26 | INFO    | 
19:17:26 | INFO    | Non-default parameters:
19:17:26 | INFO    | TimeLimit  600
19:17:26 | INFO    | MIPGap  0.01
19:17:26 | INFO    | Presolve  2
19:17:26 | INFO    | 
19:17:26 | INFO    | Optimize a model with 3852 rows, 1123 columns and 19434 nonzeros
19:17:26 | INFO    | Model fingerprint: 0x563dfb75
19:17:26 | INFO    | Variable types: 158 continuous, 965 integer (935 binary)
19:17:26 | INFO    | Coefficient statistics:
19:17:26 | INFO    |   Matrix range     [1e+00, 5e+02]
19:17:26 | INFO    |   Objective range  [1e-03, 1e+00]
19:17:26 | INFO    |   Bounds range     [1e+00, 3e+01]
19:17:26 | INFO    |   RHS range        [1e+00, 5e+02]
19:17:26 | INFO    | Presolve removed 3459 rows and 976 columns
19:17:26 | INFO    | Presolve time: 0.01s
19:17:26 | INFO    | Presolved: 393 rows, 147 columns, 2546 nonzeros
19:17:26 | INFO    | Variable types: 32 continuous, 115 integer (105 binary)
19:17:26 | INFO    | Root relaxation presolve removed 2 rows and 0 columns
19:17:26 | INFO    | Root relaxation presolved: 391 rows, 148 columns, 2534 nonzeros
19:17:26 | INFO    | 
19:17:26 | INFO    | 
19:17:26 | INFO    | Root relaxation: objective 1.500000e-02, 74 iterations, 0.00 seconds (0.00 work units)
19:17:26 | INFO    | 
19:17:26 | INFO    |     Nodes    |    Current Node    |     Objective Bounds      |     Work
19:17:26 | INFO    |  Expl Unexpl |  Obj  Depth IntInf | Incumbent    BestBd   Gap | It/Node Time
19:17:26 | INFO    | 
19:17:26 | INFO    |      0     0    0.01500    0   12          -    0.01500      -     -    0s
19:17:26 | INFO    |      0     0    0.01500    0   20          -    0.01500      -     -    0s
19:17:26 | INFO    |      0     0    0.02004    0   28          -    0.02004      -     -    0s
19:17:26 | INFO    |      0     0    0.03664    0   37          -    0.03664      -     -    0s
19:17:26 | INFO    |      0     0    0.04643    0   37          -    0.04643      -     -    0s
19:17:26 | INFO    |      0     0    0.05230    0   34          -    0.05230      -     -    0s
19:17:26 | INFO    |      0     0    0.05267    0   38          -    0.05267      -     -    0s
19:17:26 | INFO    |      0     0    0.05589    0   42          -    0.05589      -     -    0s
19:17:26 | INFO    |      0     0    0.05634    0   45          -    0.05634      -     -    0s
19:17:26 | INFO    |      0     0    0.05687    0   40          -    0.05687      -     -    0s
19:17:26 | INFO    |      0     0    0.05728    0   43          -    0.05728      -     -    0s
19:17:26 | INFO    |      0     0    0.05800    0   44          -    0.05800      -     -    0s
19:17:26 | INFO    |      0     0    0.05820    0   45          -    0.05820      -     -    0s
19:17:26 | INFO    |      0     0    0.05911    0   44          -    0.05911      -     -    0s
19:17:26 | INFO    |      0     0    0.05997    0   41          -    0.05997      -     -    0s
19:17:26 | INFO    |      0     0    0.06084    0   40          -    0.06084      -     -    0s
19:17:26 | INFO    |      0     0    0.06132    0   43          -    0.06132      -     -    0s
19:17:26 | INFO    |      0     0    0.06209    0   46          -    0.06209      -     -    0s
19:17:26 | INFO    |      0     0    0.06214    0   46          -    0.06214      -     -    0s
19:17:26 | INFO    |      0     0    0.06232    0   44          -    0.06232      -     -    0s
19:17:26 | INFO    |      0     0    0.06241    0   44          -    0.06241      -     -    0s
19:17:26 | INFO    |      0     0    0.06256    0   49          -    0.06256      -     -    0s
19:17:26 | INFO    |      0     0    0.06261    0   48          -    0.06261      -     -    0s
19:17:26 | INFO    |      0     0    0.06261    0   47          -    0.06261      -     -    0s
19:17:26 | INFO    |      0     0    0.06263    0   47          -    0.06263      -     -    0s
19:17:26 | INFO    |      0     0    0.06270    0   46          -    0.06270      -     -    0s
19:17:26 | INFO    |      0     0    0.06270    0   46          -    0.06270      -     -    0s
19:17:26 | INFO    |      0     2    0.06270    0   46          -    0.06270      -     -    0s
19:17:26 | INFO    | * 1109   743              24      79.0900000    0.06852   100%  12.5    0s
19:17:27 | INFO    | 
19:17:27 | INFO    | Cutting planes:
19:17:27 | INFO    |   Learned: 10
19:17:27 | INFO    |   Gomory: 5
19:17:27 | INFO    |   Cover: 3
19:17:27 | INFO    |   Implied bound: 66
19:17:27 | INFO    |   Clique: 1
19:17:27 | INFO    |   MIR: 156
19:17:27 | INFO    |   StrongCG: 5
19:17:27 | INFO    |   Flow cover: 240
19:17:27 | INFO    |   Inf proof: 10
19:17:27 | INFO    |   Zero half: 3
19:17:27 | INFO    |   RLT: 44
19:17:27 | INFO    |   Relax-and-lift: 31
19:17:27 | INFO    |   BQP: 1
19:17:27 | INFO    |   PSD: 2
19:17:27 | INFO    | 
19:17:27 | INFO    | Explored 5475 nodes (150024 simplex iterations) in 1.73 seconds (1.70 work units)
19:17:27 | INFO    | Thread count was 16 (of 16 available processors)
19:17:27 | INFO    | 
19:17:27 | INFO    | Solution count 1: 79.09 
19:17:27 | INFO    | 
19:17:27 | INFO    | Optimal solution found (tolerance 1.00e-02)
19:17:27 | INFO    | Best objective 7.909000000000e+01, best bound 7.909000000000e+01, gap 0.0000%
19:17:27 | INFO    | Solution found | route_duration=79.00 | total_wait=90.00
19:17:27 | INFO    | Objective=79.09 | runtime=1.73s | MIP Gap=0.00%
19:17:27 | INFO    | Generating Excel output | C:\Users\Asus\Documents\GitHub\logistics-model2\internal-logistics-model2\results\SR_SV_RD\case1\result_SR_SV_RD_case1_P5_eps90_2026_05_06_19_17.xlsx
19:17:27 | INFO    | Excel output written | 12 sheets | C:\Users\Asus\Documents\GitHub\logistics-model2\internal-logistics-model2\results\SR_SV_RD\case1\result_SR_SV_RD_case1_P5_eps90_2026_05_06_19_17.xlsx
19:17:27 | INFO    | Master Pareto updated | 2 total rows | C:\Users\Asus\Documents\GitHub\logistics-model2\internal-logistics-model2\results\master_pareto.xlsx
19:17:27 | INFO    | Run complete | run_id=SR_SV_RD_case1_P5_eps90
